num_offers = 20;
num_halls = 10;
start=[5,71,19,15,46,40,9,15,89,17,38,13,11,3,34,64,5,17,50,4];
end=[65,83,48,49,97,62,75,37,91,55,73,43,42,75,63,85,64,72,63,34];
price=[5128,1010,1283,962,1086,1013,2582,1742,110,595,2481,627,2086,3833,2916,1051,4741,4389,214,2027];
requirement=[700,383,796,378,880,252,391,462,566,218,384,619,925,326,869,704,481,701,521,963];
capacity=[962,914,426,709,958,860,570,992,676,488];
